HFSDDW
15	8	4
0	28	1	29	2	28	3	61
0	79	1	14	2	90	3	26
0	5	1	89	2	52	3	50
0	68	1	31	2	28	3	27
0	10	1	84	2	8	3	37
0	48	1	83	2	60	3	79
0	90	1	49	2	10	3	55
0	45	1	50	2	46	3	26
0	63	1	80	2	80	3	60
0	42	1	61	2	40	3	14
0	80	1	84	2	31	3	28
0	61	1	46	2	12	3	81
0	57	1	4	2	78	3	68
0	71	1	92	2	79	3	44
0	68	1	48	2	70	3	31
LBCmax: 508
RELDUE
-1	359	6	5
-1	391	3	2
-1	438	5	4
-1	411	3	9
-1	400	4	7
-1	382	7	5
-1	444	7	1
-1	444	4	9
-1	407	9	9
-1	425	1	1
-1	442	5	1
-1	405	7	8
-1	401	4	6
-1	452	3	3
-1	413	9	2
DDW
337	381
371	411
368	508
378	444
384	416
309	455
408	480
417	471
383	431
344	506
376	508
373	437
365	437
375	529
355	471
